objective value:                                53055
C0085                                               1 	(obj:20)
C0164                                               1 	(obj:20)
C0168                                               1 	(obj:20)
C0169                                               1 	(obj:20)
C0171                                               1 	(obj:25)
C0181                                               1 	(obj:20)
C0183                                               1 	(obj:25)
C0185                                               1 	(obj:15)
C0208                                               1 	(obj:10)
C0209                                1.00000000000004 	(obj:5)
C0210                                               1 	(obj:10)
C0212                                               1 	(obj:10)
C0214                                               1 	(obj:5)
C0215                               0.999999999999999 	(obj:15)
C0221                                               1 	(obj:20)
C0222                                               1 	(obj:5)
C0226                                               1 	(obj:25)
C0227                                               1 	(obj:5)
C0228                                               1 	(obj:10)
C0229                                               1 	(obj:10)
C0230                                               1 	(obj:25)
C0244                                               1 	(obj:10)
C0246                                               1 	(obj:25)
C0256                                               1 	(obj:25)
C0269                                               1 	(obj:30)
C0272                                               1 	(obj:20)
C0294                                               1 	(obj:10)
C0297                                               1 	(obj:15)
C0300                                1.00000000000001 	(obj:5)
C0313                                               1 	(obj:15)
C0315                                               1 	(obj:25)
C0320                                               1 	(obj:20)
C0323                               0.999999999999998 	(obj:20)
C0329                                               1 	(obj:15)
C0415                                               1 	(obj:5)
C0492                                               1 	(obj:20)
C0493                                               1 	(obj:20)
C0495                                               1 	(obj:25)
C0500                                               1 	(obj:20)
C0502                                               1 	(obj:15)
C0505                                               1 	(obj:20)
C0507                                               1 	(obj:25)
C0511                               0.999999999999999 	(obj:15)
C0513                                               1 	(obj:25)
C0514                                               1 	(obj:5)
C0519                               0.999999999999999 	(obj:10)
C0520                                               1 	(obj:20)
C0521                               0.999999999999999 	(obj:10)
C0523                                               1 	(obj:20)
C0525                                               1 	(obj:25)
C0526                                               1 	(obj:10)
C0527                                               1 	(obj:10)
C0528                                               1 	(obj:25)
C0530                                               1 	(obj:5)
C0532                                               1 	(obj:10)
C0533                               0.999999999999922 	(obj:5)
C0534                                               1 	(obj:10)
C0538                                               1 	(obj:5)
C0539                                               1 	(obj:15)
C0544                                               1 	(obj:15)
C0545                                               1 	(obj:20)
C0547                                               1 	(obj:15)
C0550                                               1 	(obj:25)
C0552                                               1 	(obj:10)
C0553                                               1 	(obj:10)
C0554                                               1 	(obj:25)
C0578                                               1 	(obj:10)
C0591                                               1 	(obj:25)
C0738                                               1 	(obj:25)
C0745                                               1 	(obj:15)
C0754                                               1 	(obj:15)
C0762                               0.999999999999999 	(obj:10)
C0766                                               1 	(obj:20)
C0768                                               1 	(obj:25)
C0773                                               1 	(obj:5)
C0775                                               1 	(obj:10)
C0777                                               1 	(obj:10)
C0779                                               1 	(obj:10)
C0781                                               1 	(obj:5)
C0789                                               1 	(obj:5)
C0790                               0.999999999999999 	(obj:15)
C0793                               0.999999999999999 	(obj:25)
C0796                                               1 	(obj:10)
C0803                               0.999999999999997 	(obj:10)
C0816                                               1 	(obj:20)
C0817                                               1 	(obj:20)
C0818                                               1 	(obj:20)
C0824                                               1 	(obj:20)
C0827                                               1 	(obj:15)
C0829                                               1 	(obj:20)
C0831                                               1 	(obj:25)
C0833                                               1 	(obj:15)
C0837                                               1 	(obj:25)
C0838                                               1 	(obj:5)
C0844                                               1 	(obj:20)
C0845                                               1 	(obj:10)
C0850                                               1 	(obj:10)
C0851                                               1 	(obj:10)
C0857                               0.999999999999922 	(obj:5)
C0868                                               1 	(obj:15)
C0869                                               1 	(obj:20)
C0876                                               1 	(obj:10)
C0945                                               1 	(obj:15)
C0948                                1.00000000000001 	(obj:5)
C0961                                               1 	(obj:15)
C0964                                               1 	(obj:25)
C0968                                               1 	(obj:20)
C0969                                               1 	(obj:25)
C0971                               0.999999999999999 	(obj:20)
C1068                                               1 	(obj:5)
C1071                                               1 	(obj:5)
C1091                                               1 	(obj:5)
C1135                                               1 	(obj:10)
C1147                                               1 	(obj:25)
C1154                               0.999999999999999 	(obj:20)
C1156                               0.999999999999948 	(obj:15)
C1160                                1.00000000000001 	(obj:30)
C1163                                               1 	(obj:20)
C1166                                               1 	(obj:10)
C1170                               0.999999999999999 	(obj:20)
C1188                                               1 	(obj:15)
C1191                                               1 	(obj:5)
C1206                                               1 	(obj:25)
C1211                                               1 	(obj:20)
C1214                                1.00000000000002 	(obj:20)
C1245                                               1 	(obj:30)
C1246                               0.999999999999999 	(obj:5)
C1248                               0.999999999999999 	(obj:10)
C1249                                               1 	(obj:20)
C1250                               0.999999999999999 	(obj:10)
C1252                                               1 	(obj:20)
C1311                                               1 	(obj:5)
C1334                                               1 	(obj:5)
C1341                                               1 	(obj:5)
C1345                                               1 	(obj:20)
C1423                                               1 	(obj:10)
C1429                                               1 	(obj:5)
C1432                                               1 	(obj:10)
C1441                                               1 	(obj:25)
C1532                                               1 	(obj:10)
C1533                                               1 	(obj:15)
C1537                                               1 	(obj:10)
C1555                                               1 	(obj:15)
C1583                                               1 	(obj:5)
C1589                                               1 	(obj:10)
C1600                                               1 	(obj:15)
C1674                               0.999999999999999 	(obj:15)
C1676                                               1 	(obj:10)
C1677                                               1 	(obj:5)
C1689                                               1 	(obj:10)
C1690                                               1 	(obj:15)
C1702                                               1 	(obj:10)
C1716                                               1 	(obj:5)
C1721                                               1 	(obj:20)
C1723                                               1 	(obj:15)
C1730                                               1 	(obj:20)
C1737                                               1 	(obj:20)
C1744                                               1 	(obj:15)
C1746                                               1 	(obj:5)
C1750                                               1 	(obj:20)
C1752                                               1 	(obj:10)
C1755                                               1 	(obj:15)
C1758                                               1 	(obj:5)
C1773                                               1 	(obj:25)
C1778                                               1 	(obj:20)
C1781                                               1 	(obj:20)
C1857                                               1 	(obj:15)
C1858                                               1 	(obj:10)
C1861                                               1 	(obj:10)
C1863                                               1 	(obj:20)
C1869                                               1 	(obj:20)
C1870                               0.999999999999999 	(obj:20)
C1877                                               1 	(obj:20)
C1880                                               1 	(obj:15)
C1884                                               1 	(obj:25)
C1898                                               1 	(obj:10)
C1903                                               1 	(obj:10)
C1905                                               1 	(obj:25)
C1910                                               1 	(obj:5)
C1916                                               1 	(obj:15)
C1928                                               1 	(obj:5)
C1952                                               1 	(obj:20)
C1967                                               1 	(obj:15)
C1972                                               1 	(obj:5)
C2000                                               1 	(obj:10)
C2003                                               1 	(obj:20)
C2013                                               1 	(obj:10)
C2026                                               1 	(obj:10)
C2040                                               1 	(obj:5)
C2047                                               1 	(obj:15)
C2054                                               1 	(obj:20)
C2061                                               1 	(obj:20)
C2068                                               1 	(obj:15)
C2074                                               1 	(obj:20)
C2082                                               1 	(obj:5)
C2095                                               1 	(obj:15)
C2097                                               1 	(obj:25)
C2102                                               1 	(obj:20)
C2105                                               1 	(obj:20)
C2282                                               1 	(obj:20)
C2295                                               1 	(obj:25)
C2303                                               1 	(obj:10)
C2310                                               1 	(obj:25)
C2315                                               1 	(obj:5)
C2321                                               1 	(obj:15)
C2334                                               1 	(obj:10)
C2339                                               1 	(obj:15)
C2356                               0.999999999999999 	(obj:20)
C2696                                               1 	(obj:15)
C2850                                               1 	(obj:5)
C2871                                               1 	(obj:20)
C2884                                               1 	(obj:20)
C2905                                               1 	(obj:15)
C2912                                               1 	(obj:20)
C2942                                               1 	(obj:30)
C2945                                               1 	(obj:20)
C3028                               0.999999999999955 	(obj:5)
C3091                                               1 	(obj:25)
C3093                                               1 	(obj:5)
C3132                               0.999999999999999 	(obj:15)
C3135                                1.00000000000001 	(obj:5)
C3148                                               1 	(obj:15)
C3150                                               1 	(obj:25)
C3155                                               1 	(obj:20)
C3158                               0.999999999999998 	(obj:20)
C3178                                               1 	(obj:20)
C3180                                               1 	(obj:25)
C3182                                               1 	(obj:15)
C3205                                               1 	(obj:10)
C3206                                1.00000000000004 	(obj:5)
C3207                                               1 	(obj:10)
C3209                                               1 	(obj:10)
C3217                                               1 	(obj:15)
C3219                                               1 	(obj:5)
C3223                                               1 	(obj:25)
C3224                                               1 	(obj:5)
C3225                                               1 	(obj:10)
C3227                                               1 	(obj:25)
C3291                                               1 	(obj:10)
C3293                                               1 	(obj:15)
C3456                                               1 	(obj:15)
C3459                                1.00000000000001 	(obj:5)
C3472                                               1 	(obj:15)
C3479                                               1 	(obj:20)
C3482                               0.999999999999999 	(obj:20)
C3516                               0.999999999999999 	(obj:10)
C3517                                               1 	(obj:20)
C3518                               0.999999999999999 	(obj:10)
C3520                                               1 	(obj:20)
C3522                                               1 	(obj:25)
C3523                                               1 	(obj:10)
C3525                                               1 	(obj:25)
C3527                                               1 	(obj:5)
C3589                                               1 	(obj:15)
C3591                                               1 	(obj:25)
C3592                                               1 	(obj:5)
C3699                                               1 	(obj:15)
C3702                                1.00000000000001 	(obj:5)
C3715                                               1 	(obj:15)
C3798                                               1 	(obj:25)
C3799                                               1 	(obj:25)
C3800                               0.999999999999997 	(obj:10)
C3803                                               1 	(obj:20)
C3804                                               1 	(obj:25)
C3806                               0.999999999999999 	(obj:20)
C3813                                               1 	(obj:20)
C3814                                               1 	(obj:20)
C3815                                               1 	(obj:20)
C3816                                               1 	(obj:25)
C3821                                               1 	(obj:20)
C3823                                               1 	(obj:15)
C3826                                               1 	(obj:20)
C3828                                               1 	(obj:25)
C3830                                               1 	(obj:15)
C3832                                               1 	(obj:15)
C3834                               0.999999999999999 	(obj:25)
C3835                                               1 	(obj:5)
C3840                               0.999999999999999 	(obj:10)
C3841                                               1 	(obj:20)
C3842                               0.999999999999999 	(obj:10)
C3844                                               1 	(obj:20)
C3846                                               1 	(obj:25)
C3847                               0.999999999999999 	(obj:10)
C3848                               0.999999999999999 	(obj:10)
C3849                                               1 	(obj:25)
C3851                                               1 	(obj:5)
C3854                               0.999999999999922 	(obj:5)
C3855                                               1 	(obj:10)
C3857                                               1 	(obj:10)
C3859                                               1 	(obj:5)
C3860                                               1 	(obj:15)
C3865                                               1 	(obj:15)
C3866                                               1 	(obj:20)
C3868                                               1 	(obj:15)
C3871                                               1 	(obj:25)
C3872                                               1 	(obj:5)
C3873                                               1 	(obj:10)
C3874                                               1 	(obj:10)
C3920                                               1 	(obj:10)
C3924                               0.999999999999999 	(obj:20)
C3931                                               1 	(obj:15)
C4015                                               1 	(obj:10)
C4019                                               1 	(obj:10)
C4060                                               1 	(obj:5)
C4098                                               1 	(obj:10)
C4108                                               1 	(obj:15)
C4109                                               1 	(obj:20)
C4110                                               1 	(obj:5)
C4115                                               1 	(obj:5)
C4116                                               1 	(obj:10)
C4118                                               1 	(obj:25)
C4155                                               1 	(obj:25)
C4169                                               1 	(obj:5)
C4362                                               1 	(obj:10)
C4545                                               1 	(obj:25)
C4552                                               1 	(obj:15)
C4561                                               1 	(obj:15)
C4573                                               1 	(obj:20)
C4575                                               1 	(obj:25)
C4580                                               1 	(obj:5)
C4582                                               1 	(obj:10)
C4586                                               1 	(obj:10)
C4588                                               1 	(obj:5)
C4597                                               1 	(obj:15)
C4600                                               1 	(obj:25)
C4610                                               1 	(obj:10)
C4611                                               1 	(obj:15)
C4615                                               1 	(obj:10)
C4627                                               1 	(obj:5)
C4681                                               1 	(obj:25)
C4683                                               1 	(obj:10)
C4684                                               1 	(obj:10)
C4685                                               1 	(obj:25)
C4731                               0.999999999999999 	(obj:10)
C4754                                               1 	(obj:10)
C4763                                               1 	(obj:5)
C4851                                               1 	(obj:25)
C4852                                               1 	(obj:25)
C4853                               0.999999999999997 	(obj:10)
C4854                                               1 	(obj:15)
C4855                                               1 	(obj:10)
C4856                                               1 	(obj:20)
C4857                                               1 	(obj:25)
C4939                                               1 	(obj:10)
C4951                                               1 	(obj:5)
C5259                               0.999999999999999 	(obj:15)
C5260                                               1 	(obj:10)
C5261                                               1 	(obj:20)
C5262                                               1 	(obj:25)
C5339                               0.999999999999997 	(obj:10)
C5468                                               1 	(obj:10)
C5483                                               1 	(obj:10)
C5486                                               1 	(obj:20)
C5866                                               1 	(obj:250)
C5864                                               2 	(obj:250)
C5862                                               1 	(obj:250)
C5861                                               5 	(obj:250)
C5858                                               8 	(obj:250)
C5857                                               4 	(obj:250)
C5856                                              10 	(obj:250)
C5855                                               3 	(obj:250)
C5854                                              10 	(obj:250)
C5853                                               9 	(obj:250)
C5852                                               4 	(obj:250)
C5851                                               2 	(obj:250)
C5850                                               3 	(obj:250)
C5849                                               2 	(obj:250)
C5848                                               4 	(obj:250)
C5847                                              11 	(obj:250)
C5846                                               1 	(obj:250)
C5845                                               2 	(obj:250)
C5844                                              21 	(obj:250)
C5843                                              13 	(obj:250)
C5842                                               9 	(obj:250)
C5841                                               3 	(obj:250)
C5840                                               6 	(obj:250)
C5839                                              22 	(obj:250)
C5838                                               1 	(obj:250)
C5837                                               2 	(obj:250)
C5836                                               9 	(obj:250)
C5835                                              14 	(obj:250)
C5834                                               1 	(obj:250)
C5833                                               2 	(obj:250)
C5868                                               6 	(obj:250)
